sat
((father_name "aaaaaa") (mother_name "AAAAAA") (child_name "AAAAAA") (parent_name "aaaaaaAAAAAA") (relationship_status "Partners"))
cvc5::CONSTANT = { String type: 5 }
cvc5::TERM = { EQUAL: 2, GT: 3, REGEXP_RANGE: 3, REGEXP_STAR: 3, STRING_CONCAT: 1, STRING_IN_REGEXP: 3, STRING_LENGTH: 3 }
cvc5::VARIABLE = { Boolean type: 1 }
driver::filename = patnership.smt2
global::totalTime = 208ms
theory::arith::inferencesConflict = { ARITH_CONF_EQ: 15, ARITH_CONF_SIMPLEX: 6 }
theory::arith::inferencesLemma = { ARITH_ROW_IMPL: 3, ARITH_UNATE: 6 }
theory::strings::inferencesLemma = { STRINGS_CODE_INJ: 117, STRINGS_CODE_PROXY: 11, STRINGS_EXTF: 8, STRINGS_LEN_NORM: 9, STRINGS_REGISTER_TERM: 58, STRINGS_REGISTER_TERM_ATOMIC: 30, STRINGS_RE_UNFOLD_POS: 9 }
